000 000 000 000 000 000 000 -99 -99 -99 -99 -99 000 000 000 000 -99 -99 000 000 -99 000 000 000 000 000 -99 -99 -99 -99 -99
000 000 000 000 000 000 000 000 -99 -99 -99 -99 -99 000 000 000 -99 -99 -99 000 000 000 000 000 000 000 -99 -99 -99 -99 -99
000 000 000 000 000 000 000 000 -99 -99 -99 -99 -99 -99 000 000 -99 -99 -99 000 000 -99 000 000 000 000 -99 -99 -99 -99 -99
-99 -99 000 000 000 000 000 -99 000 000 -99 -99 000 -99 -99 -99 -99 -99 -99 000 000 -99 -99 000 000 -99 -99 -99 -99 -99 -99
000 -99 -99 000 000 000 000 000 000 000 -99 -99 000 000 -99 -99 -99 -99 -99 -99 000 000 -99 000 000 000 -99 -99 -99 -99 -99
000 000 000 000 000 000 000 000 000 000 -99 -99 000 000 -99 -99 -99 000 -99 000 000 000 000 000 000 000 -99 -99 -99 -99 -99
000 000 -99 000 000 000 000 000 000 000 -99 -99 000 000 -99 -99 000 000 -99 000 000 000 000 000 000 000 -99 -99 -99 -99 -99
000 000 000 000 000 -99 -99 000 000 000 000 -99 -99 000 -99 -99 000 000 000 -99 000 000 000 000 000 000 -99 -99 -99 -99 -99
000 000 000 000 001 -99 -99 000 000 000 000 000 -99 -99 -99 -99 -99 000 000 000 000 -99 -99 000 000 -99 -99 -99 -99 -99 -99
000 000 000 000 000 000 -99 -99 000 000 000 000 000 -99 000 000 000 000 000 000 000 000 -99 -99 000 -99 -99 -99 -99 -99 -99
000 000 000 000 000 -99 -99 -99 -99 000 000 000 000 000 -99 000 000 000 000 -99 000 000 -99 -99 -99 -99 -99 -99 -99 000 000
000 000 000 000 000 -99 000 000 000 000 000 000 000 000 -99 000 000 000 -99 -99 -99 000 -99 -99 000 -99 000 -99 -99 000 000
000 000 000 000 000 -99 000 000 000 000 -99 -99 000 000 -99 -99 000 000 000 -99 -99 -99 -99 -99 000 -99 000 000 000 000 000
000 000 000 000 000 -99 000 000 -99 000 000 -99 000 000 -99 000 000 000 000 000 -99 -99 -99 -99 -99 000 000 000 -99 000 000
000 -99 000 -99 000 000 000 000 000 000 -99 -99 000 000 000 000 000 -99 000 000 -99 -99 -99 -99 -99 000 000 000 000 -99 -99
000 -99 -99 -99 000 -99 000 000 000 000 -99 -99 000 000 000 000 000 -99 -99 -99 -99 000 -99 -99 -99 000 000 000 -99 -99 -99
-99 -99 -99 -99 -99 -99 000 000 000 000 -99 -99 -99 000 000 000 000 -99 -99 -99 -99 -99 000 -99 -99 000 000 000 000 000 -99
000 -99 000 -99 -99 -99 000 000 000 000 000 000 -99 -99 000 000 000 000 000 -99 -99 000 000 -99 -99 000 000 -99 -99 000 -99
000 000 000 -99 -99 -99 -99 000 000 000 000 000 -99 000 000 000 000 000 000 -99 -99 000 000 -99 -99 -99 -99 -99 -99 -99 -99
000 000 000 -99 -99 -99 -99 -99 000 000 000 000 000 000 000 000 000 -99 000 000 000 000 000 -99 -99 -99 -99 -99 -99 -99 -99
000 000 000 000 000 -99 -99 -99 000 000 000 000 000 000 000 000 000 -99 000 000 000 000 000 -99 -99 -99 -99 -99 -99 -99 -99
000 000 000 000 000 000 -99 000 000 000 -99 000 000 000 000 000 000 000 000 000 000 000 000 -99 -99 -99 -99 -99 -99 -99 -99
000 000 000 000 000 000 -99 000 000 000 -99 -99 000 000 -99 000 000 000 000 000 000 000 000 -99 -99 -99 -99 -99 -99 -99 -99
000 000 000 000 000 000 000 000 000 000 -99 -99 000 000 -99 -99 000 000 000 000 000 000 -99 -99 -99 -99 -99 -99 -99 -99 -99
000 000 000 000 000 000 000 000 000 000 -99 -99 000 000 000 000 000 000 000 000 000 000 -99 -99 -99 -99 -99 -99 -99 -99 -99
000 000 000 000 000 000 000 000 000 000 -99 -99 000 000 000 000 000 000 000 000 000 000 -99 -99 -99 -99 -99 -99 -99 -99 -99
000 000 000 000 000 000 000 000 000 000 000 -99 -99 000 000 000 000 000 000 000 000 000 -99 -99 -99 -99 -99 -99 -99 -99 -99
000 000 000 000 000 -99 -99 000 000 000 -99 -99 -99 000 000 000 000 000 000 000 -99 000 -99 -99 -99 -99 -99 -99 -99 -99 000
000 000 000 000 000 000 -99 000 000 000 000 -99 -99 000 000 000 -99 000 000 000 -99 000 -99 -99 -99 -99 -99 -99 -99 -99 000
000 000 000 000 000 000 000 000 000 000 000 -99 -99 000 000 000 -99 -99 000 000 -99 -99 -99 -99 -99 -99 -99 -99 -99 -99 -99
000 000 000 000 000 000 000 000 000 000 000 -99 -99 000 000 000 -99 -99 000 000 -99 000 -99 -99 -99 -99 -99 -99 -99 -99 -99
000 000 000 000 000 000 000 -99 000 000 -99 -99 -99 000 000 000 -99 -99 000 -99 -99 -99 -99 -99 -99 -99 -99 -99 -99 -99 -99
000 000 000 000 000 -99 000 -99 000 000 -99 -99 -99 000 000 -99 -99 -99 -99 -99 -99 -99 -99 -99 000 -99 -99 -99 -99 -99 -99
000 000 000 000 000 -99 000 -99 000 000 000 -99 -99 -99 000 000 -99 -99 -99 -99 -99 -99 -99 000 000 000 -99 000 -99 000 000
000 000 000 000 000 000 000 000 000 000 000 000 000 000 000 000 000 -99 -99 000 -99 -99 000 000 000 000 000 000 000 000 000
000 000 000 000 000 000 000 000 000 000 000 000 000 000 000 000 000 -99 000 000 000 -99 000 000 000 000 000 000 000 -99 -99
000 000 000 000 000 -99 -99 000 000 000 000 000 000 000 000 000 000 000 000 000 000 000 000 000 000 000 000 000 000 000 000
000 000 000 000 000 000 000 -99 000 000 -99 000 000 000 000 000 000 000 000 000 000 000 000 -99 000 000 000 000 000 000 000
000 000 000 000 -99 000 -99 -99 -99 -99 -99 -99 000 000 000 000 000 000 000 000 000 000 000 001 000 000 000 000 -99 -99 -99
000 000 000 -99 000 000 000 -99 -99 -99 -99 000 000 000 000 000 000 000 000 000 000 000 000 000 001 001 000 000 -99 000 -99
000 000 000 000 000 000 000 -99 -99 000 000 000 000 000 000 000 000 000 000 000 000 000 000 000 001 001 000 000 -99 000 002
000 000 000 -99 000 000 000 000 000 000 000 000 000 000 000 000 000 000 000 000 000 000 000 000 001 000 000 -99 -99 001 001
000 000 -99 -99 000 000 -99 -99 -99 000 000 000 000 000 000 000 000 000 000 000 000 000 000 001 000 000 000 -99 -99 -99 000
000 -99 -99 -99 -99 000 -99 -99 -99 000 000 -99 -99 000 000 000 000 000 000 000 000 000 000 000 000 000 000 000 -99 -99 -99
000 000 -99 -99 000 -99 -99 -99 -99 -99 000 000 000 000 000 000 000 000 000 001 000 000 000 000 000 000 000 000 -99 -99 -99
000 -99 -99 000 000 -99 -99 -99 -99 000 000 000 -99 000 000 -99 000 -99 -99 001 000 000 001 001 000 000 000 -99 -99 -99 -99
000 -99 -99 000 000 -99 -99 -99 -99 000 000 000 000 000 -99 -99 -99 -99 000 000 000 001 002 005 001 000 000 -99 -99 -99 -99
000 -99 -99 000 -99 -99 -99 -99 -99 000 000 -99 000 000 000 -99 -99 000 000 000 000 002 004 003 000 000 -99 -99 000 -99 -99
000 -99 -99 -99 -99 -99 -99 -99 000 000 000 000 000 000 000 -99 000 000 000 000 000 002 003 001 000 000 -99 000 000 000 -99
-99 -99 -99 -99 -99 -99 -99 -99 000 000 000 000 000 000 -99 -99 000 000 000 000 000 005 002 001 000 001 001 000 -99 -99 -99
-99 -99 -99 -99 -99 -99 -99 000 000 000 000 000 000 000 000 000 000 000 000 000 002 007 002 000 002 002 000 000 -99 -99 -99
-99 -99 000 000 -99 -99 000 000 000 -99 000 -99 000 000 -99 000 000 000 000 000 003 002 001 000 004 001 001 000 -99 -99 -99
-99 000 000 000 -99 -99 000 000 -99 000 000 -99 -99 -99 000 000 000 000 000 000 000 001 000 002 002 001 001 000 -99 -99 -99
-99 -99 000 -99 -99 -99 000 000 000 000 000 -99 -99 000 000 000 000 000 000 000 000 000 000 001 001 000 000 -99 -99 -99 -99
-99 -99 -99 -99 -99 -99 000 000 000 000 000 -99 -99 000 000 000 000 000 000 000 000 000 000 000 000 000 000 -99 -99 -99 -99
